experiment/data/lkh-res/Vrp-Set-P-n76/Vrp-Set-P-n76-lkh/1.lkh1.tour
NAME : 1.63382.tour
COMMENT : Length = 63382
COMMENT : Found by LKH-3 [Keld Helsgaun] Tue Apr  9 02:43:25 2024
TYPE : TOUR
DIMENSION : 80
TOUR_SECTION
1
8
36
54
15
60
12
67
66
39
11
59
27
78
3
75
29
62
22
48
37
70
72
61
71
21
38
6
49
31
77
13
73
40
10
32
56
26
51
19
25
50
4
45
33
41
79
18
52
17
64
24
57
42
44
43
65
23
63
74
2
34
7
69
80
76
5
53
28
46
30
16
58
14
55
20
9
47
35
68
-1
EOF
